// Dezyne --- Dezyne command line tools
//
// Copyright © 2014, 2015 Rob Wieringa <Rob.Wieringa@verum.com>
//
// This file is part of Dezyne.
//
// Dezyne is free software: you can redistribute it and/or modify it
// under the terms of the GNU Affero General Public License as
// published by the Free Software Foundation, either version 3 of the
// License, or (at your option) any later version.
//
// Dezyne is distributed in the hope that it will be useful, but
// WITHOUT ANY WARRANTY; without even the implied warranty of
// MERCHANTABILITY or FITNESS FOR A PARTICULAR PURPOSE.  See the GNU
// Affero General Public License for more details.
//
// You should have received a copy of the GNU Affero General Public
// License along with Dezyne.  If not, see <http://www.gnu.org/licenses/>.
//
// Commentary:
//
// Code:

interface Aap
{
  enum AapValues {yes, no};

  in AapValues is_aap();
}

component Noot
{
  provides Aap aap;
  
  behaviour
  {
    enum State {S1, S2};
    State S = State.S1;
    
    void f(aap.AapValues a)
    {
      S = State.S2;
    }
  
    State g(bool b)
    {
      reply(State.S1);
    }

    on aap.is_aap():
    {
      if (true)
      {
        if (true)
        {
          reply(aap.AapValues.yes);
        }
      }
      else
      {
        f(aap.AapValues.no);
        g(true);
        //reply(aap.AapValues.no);
      }
    }
    
  }
}
